NAME: toy5
TYPE: TSP
COMMENT: 17-city problem (Groetschel)
DIMENSION: 5
EDGE_WEIGHT_TYPE: EXPLICIT
EDGE_WEIGHT_FORMAT: FULL_MATRIX 
EDGE_WEIGHT_SECTION
    0   3   1   2   4
    3   0   3   4   6
    1   3   0   2   5
    2   4   2   0   1
    4   6   5   1   0
EOF

